# Solution for model GasLib-40
# Objective value = 3.9794143438000233e+01
loadshed[innode_1] 0
loadshed[innode_2] 0
loadshed[innode_3] 0
loadshed[innode_4] 0
loadshed[innode_5] 0
loadshed[innode_6] 0
loadshed[innode_7] 0
loadshed[innode_8] 0
loadshed[source_1] -1.3283615048751973e-01
loadshed[source_2] 3.0082882116211906e-02
loadshed[source_3] 3.5447110957793126e-01
loadshed[sink_1] 0
loadshed[sink_2] 0
loadshed[sink_3] 0
loadshed[sink_4] 0
loadshed[sink_5] 0
loadshed[sink_6] 0
loadshed[sink_7] 0
loadshed[sink_8] 0
loadshed[sink_9] 0
loadshed[sink_10] 0
loadshed[sink_11] 0
loadshed[sink_12] 1
loadshed[sink_13] 0
loadshed[sink_14] 0
loadshed[sink_15] 0
loadshed[sink_16] 0
loadshed[sink_17] 0
loadshed[sink_18] 0
loadshed[sink_19] 0
loadshed[sink_20] 0
loadshed[sink_21] 1
loadshed[sink_22] 0
loadshed[sink_23] 0
loadshed[sink_24] 0.43327246499874
loadshed[sink_25] 0
loadshed[sink_26] 0
loadshed[sink_27] 0
loadshed[sink_28] 0
loadshed[sink_29] 0
flow[source_1,sink_3] 1.7909038170728047e+02
flow[innode_1,sink_16] 1.6354166666666970e+01
flow[innode_6,sink_13] 1.2427325066274811e+01
flow[sink_13,sink_14] -3.9268416003918567e+00
flow[sink_14,sink_10] -2.0281008267058525e+01
flow[sink_25,sink_26] 1.3568876375878870e+02
flow[sink_26,sink_9] 3.2708333333334551e+01
flow[sink_9,sink_18] 1.6354166666667879e+01
flow[sink_26,sink_4] 8.6626263758787474e+01
flow[sink_4,sink_20] -5.3475426136547526e+01
flow[sink_18,sink_6] 0
flow[sink_25,innode_8] -1.4638204837394409e+02
flow[sink_6,sink_7] -4.9062500000000313e+01
flow[sink_6,sink_22] 3.2708333333333641e+01
flow[sink_7,sink_24] 9.2683565619997754e+00
flow[sink_22,sink_1] 1.6354166666666970e+01
flow[sink_24,sink_21] 0
flow[sink_21,sink_12] 0
flow[sink_7,sink_5] -7.4685023228666751e+01
flow[sink_5,sink_17] -9.1039189895333422e+01
flow[sink_17,sink_4] -1.2374752322866843e+02
flow[sink_17,sink_8] 1.6354166666668334e+01
flow[sink_3,sink_23] 16.3541666666697
flow[sink_8,sink_20] 0
flow[sink_25,sink_20] 69.8295928032141
flow[sink_25,sink_15] -8.7917799921001773e+01
flow[sink_15,sink_29] -5.8660503533906891e+01
flow[sink_29,sink_28] 1.6354166666667879e+01
flow[sink_29,sink_2] 6.1965629720428225e+01
flow[sink_2,sink_15] 4.5611463053761554e+01
flow[sink_29,innode_7] -1.5333446658766968e+02
flow[innode_4,sink_19] 85.6976749337258
flow[sink_19,innode_3] 3.3839339335535094e+01
flow[innode_4,innode_5] 1.6354166666679703e+01
flow[sink_27,innode_5] -1.6354166666679703e+01
flow[sink_27,sink_19] 0
flow[sink_10,sink_11] 3.2708333333333641e+01
flow[sink_10,innode_2] -3.5504168931523857e+01
flow[sink_10,innode_3] -3.3839339335535094e+01
flow[innode_6,sink_25] -1.2427325066274811e+01
flow[sink_11,innode_1] 1.6354166666666970e+01
flow[sink_19,innode_2] 3.5504168931523857e+01
flow[source_3,innode_4] 1.0205184160040551e+02
flow[source_2,innode_7] 1.5333446658766968e+02
flow[sink_3,innode_8] 1.4638204837394409e+02
pressure[innode_1] 7.5513175556859750e+01
pressure[innode_2] 77.5414188295145
pressure[innode_3] 7.7466485444445453e+01
pressure[innode_4] 81.01325
pressure[innode_5] 8.1002000741808772e+01
pressure[innode_6] 7.4767095999682638e+01
pressure[innode_7] 81.01325
pressure[innode_8] 8.0414619268958148e+01
pressure[source_1] 81.01325
pressure[source_2] 81.01325
pressure[source_3] 81.01325
pressure[sink_1] 8.85023887953375
pressure[sink_2] 7.5342494372589371e+01
pressure[sink_3] 8.0414619268958148e+01
pressure[sink_4] 5.4196728680671605e+01
pressure[sink_5] 4.2685744790679422e+01
pressure[sink_6] 1.0951316489921123e+01
pressure[sink_7] 1.1624827667621254e+01
pressure[sink_8] 4.8850421192302896e+01
pressure[sink_9] 6.3252937885858472e+01
pressure[sink_10] 75.6648768644633
pressure[sink_11] 7.5513175556859750e+01
pressure[sink_12] 1.01325
pressure[sink_13] 7.4698586233391211e+01
pressure[sink_14] 7.4705613650928044e+01
pressure[sink_15] 7.5193582998323379e+01
pressure[sink_16] 7.4491525722042070e+01
pressure[sink_17] 4.9467506387716519e+01
pressure[sink_18] 6.2661195392058772e+01
pressure[sink_19] 77.5414188295145
pressure[sink_20] 5.8119934589209770e+01
pressure[sink_21] 1.01325
pressure[sink_22] 9.91400802188876
pressure[sink_23] 8.0249901257298362e+01
pressure[sink_24] 1.01325
pressure[sink_25] 7.4767095999682638e+01
pressure[sink_26] 6.5210616053743081e+01
pressure[sink_27] 8.0866291377726043e+01
pressure[sink_28] 7.6616871432245389e+01
pressure[sink_29] 7.6912153705862565e+01
interdiction[source_1,sink_3] 0
interdiction[innode_1,sink_16] 0
interdiction[innode_6,sink_13] 0
interdiction[sink_13,sink_14] 0
interdiction[sink_14,sink_10] 0
interdiction[sink_25,sink_26] 0
interdiction[sink_26,sink_9] 0
interdiction[sink_9,sink_18] 0
interdiction[sink_26,sink_4] 0
interdiction[sink_4,sink_20] 0
interdiction[sink_18,sink_6] 1
interdiction[sink_25,innode_8] 0
interdiction[sink_6,sink_7] 0
interdiction[sink_6,sink_22] 0
interdiction[sink_7,sink_24] 0
interdiction[sink_22,sink_1] 0
interdiction[sink_24,sink_21] 0
interdiction[sink_21,sink_12] 0
interdiction[sink_7,sink_5] 0
interdiction[sink_5,sink_17] 0
interdiction[sink_17,sink_4] 0
interdiction[sink_17,sink_8] 0
interdiction[sink_3,sink_23] 0
interdiction[sink_8,sink_20] 1
interdiction[sink_25,sink_20] 0
interdiction[sink_25,sink_15] 0
interdiction[sink_15,sink_29] 0
interdiction[sink_29,sink_28] 0
interdiction[sink_29,sink_2] 0
interdiction[sink_2,sink_15] 0
interdiction[sink_29,innode_7] 0
interdiction[innode_4,sink_19] 0
interdiction[sink_19,innode_3] 0
interdiction[innode_4,innode_5] 0
interdiction[sink_27,innode_5] 0
interdiction[sink_27,sink_19] 1
interdiction[sink_10,sink_11] 0
interdiction[sink_10,innode_2] 0
interdiction[sink_10,innode_3] 0
interdiction[innode_6,sink_25] 0
interdiction[sink_11,innode_1] 0
interdiction[sink_19,innode_2] 0
interdiction[source_3,innode_4] 0
interdiction[source_2,innode_7] 0
interdiction[sink_3,innode_8] 0
WCcheckFlow[source_1,sink_3] 39
WCcheckFlow[innode_1,sink_16] 1
WCcheckFlow[innode_6,sink_13] 13
WCcheckFlow[sink_13,sink_14] 12
WCcheckFlow[sink_14,sink_10] 11
WCcheckFlow[sink_25,sink_26] 15
WCcheckFlow[sink_26,sink_9] 2
WCcheckFlow[sink_9,sink_18] 1
WCcheckFlow[sink_26,sink_4] 12
WCcheckFlow[sink_4,sink_20] 1
WCcheckFlow[sink_18,sink_6] 0
WCcheckFlow[sink_25,innode_8] -36
WCcheckFlow[sink_6,sink_7] -3
WCcheckFlow[sink_6,sink_22] 2
WCcheckFlow[sink_7,sink_24] 3
WCcheckFlow[sink_22,sink_1] 1
WCcheckFlow[sink_24,sink_21] 2
WCcheckFlow[sink_21,sink_12] 1
WCcheckFlow[sink_7,sink_5] -7
WCcheckFlow[sink_5,sink_17] -8
WCcheckFlow[sink_17,sink_4] -10
WCcheckFlow[sink_17,sink_8] 1
WCcheckFlow[sink_3,sink_23] 1
WCcheckFlow[sink_8,sink_20] 0
WCcheckFlow[sink_25,sink_20] 0
WCcheckFlow[sink_25,sink_15] 6
WCcheckFlow[sink_15,sink_29] 5
WCcheckFlow[sink_29,sink_28] 1
WCcheckFlow[sink_29,sink_2] 1
WCcheckFlow[sink_2,sink_15] 0
WCcheckFlow[sink_29,innode_7] 2
WCcheckFlow[innode_4,sink_19] -4
WCcheckFlow[sink_19,innode_3] -5
WCcheckFlow[innode_4,innode_5] 2
WCcheckFlow[sink_27,innode_5] -1
WCcheckFlow[sink_27,sink_19] 0
WCcheckFlow[sink_10,sink_11] 3
WCcheckFlow[sink_10,innode_2] 1
WCcheckFlow[sink_10,innode_3] 6
WCcheckFlow[innode_6,sink_25] -14
WCcheckFlow[sink_11,innode_1] 2
WCcheckFlow[sink_19,innode_2] 0
WCcheckFlow[source_3,innode_4] -1
WCcheckFlow[source_2,innode_7] -1
WCcheckFlow[sink_3,innode_8] 37
